%nombre de créneaux sur lequel l'emploi du temps doit être fait 30 créneaux pour une semaine
nb_creneau = 60;

%nombre maximum de groupes correspond au nombre de groupe de TP et TD et CM (1)
max_groupe = nb_groupe_tp+nb_groupe_td+1;

%nombre de groupes de TP
nb_groupe_tp = 2;

%nombre de groupes de TD
nb_groupe_td = 1;

%nombre de sortes d'UE, on a trois sortes de cours différents
nb_UE = 3;

%Cours de 0 à nombre d'ue, le 0 représente un cours vide, un trou dans l'emploi du temps
COURS = 0..nb_UE;

%UE de 1 à nombre d'UE, représente les cours uniquement, pas les trous
UE = 1..nb_UE;

%Tableau de la taille du nombre d'UE, indique le créneau minimum pour le commencement d'un cours
%exemple : [2,5,9] veut dire l'UE 1 doit commencer avant le créneau 2, l'UE 2 avant le creneau 5 et l'UE 3 avant le creneau 9
min_ue = [1,1,1];

%Tableau de la taille du nombre d'UE, indique le créneau maximum pour la fin d'un cours
%exemple : [3,6,10] veut dire l'UE 1 doit finir avant le créneau 3, l'UE 2 avant le creneau 6 et l'UE 3 avant le creneau 10
max_ue = [60,60,60];

%type de cours (1 = CM, 2 = TD, 3 = TP)
TYPE = 1..3;

%indice du prog (1 = prof1, 2 = prof2 ...)
PROF = 1..3;

%indice des groupes
GROUPE = 1..max_groupe;

%indique les nombres de groupes de CM, TD, TP
%exemple : [1,2,2,3,3,3] 1 groupe de CM, 2 groupe de TD, 3 groupes de TP
type_groupe = [1,2,3,3];

%indice des creneaux
CRENEAU = 1..nb_creneau;

%volume horaire
%exemple : volume = [|2,2,3|
%                     3,2,3|
%                     2,2,3|];        l'UE 1 doit 2h de CM, 3h de TP et 2h de CM
volume = [|1,3,1|
           3,3,5|
           1,1,4|];

%volume horaire
%exemple : profs =  [|1,1,1|
%                     2,2,2|
%                     3,3,3|];        prof 1 peut enseigner en cours/td/tp les UE 1,2,3
profs =  [|1,1,1|
           2,2,2|
           3,3,3|];

%matrice de dépendance des groupes
%certains groupes ne peuvent pas avoir lieu en même temps que d'autres
%la matrice de dépendance permet d'empêcher d'avoir les cours de TP TD CM en même temps, mais certains groupes peuvent avoir des cours en même temps
dependances_groupes = [|false, true, true, true|
                        false,false, true, true|
                        false,false,false,false|
                        false,false,false,false|];

priorite_ue = [1,1,1];
